1111100 AB
420 451 483 517 553 583 699 728 758 790 820 850 953 983 1013 1044 1076 1107 1139 1173 1205
1111100 BA
435 465 497 531 566 596 712 741 771 803 833 863 966 996 1027 1058 1090 1121 1152 1186 1219
